Coin0506I Presolve 131875 (-693) rows, 1558 (-2) columns and 549751 (-2768) elements
-1.95543e+09 elements in sparse Cholesky, flop count 4.28974e+14
Solver name: Clp
Solve time: 74.190768311
Termination status: OTHER_ERROR
Result count: 1
Primal status: UNKNOWN_RESULT_STATUS
Dual status: FEASIBLE_POINT
Clp0032I Errors objective 0 - 0 iterations time 71.782
